c FILE: n200d20/random-n200-d20-1.col

p edge 200 3980
e 1 4
e 1 6
e 1 8
e 1 9
e 1 16
e 1 21
e 1 23
e 1 25
e 1 37
e 1 41
e 1 45
e 1 49
e 1 60
e 1 62
e 1 64
e 1 68
e 1 69
e 1 70
e 1 71
e 1 72
e 1 77
e 1 80
e 1 85
e 1 93
e 1 103
e 1 107
e 1 108
e 1 110
e 1 115
e 1 119
e 1 129
e 1 136
e 1 142
e 1 144
e 1 152
e 1 165
e 1 173
e 1 174
e 1 177
e 1 184
e 1 190
e 1 199
e 2 12
e 2 13
e 2 16
e 2 18
e 2 20
e 2 26
e 2 28
e 2 30
e 2 31
e 2 36
e 2 39
e 2 41
e 2 42
e 2 43
e 2 45
e 2 47
e 2 51
e 2 55
e 2 58
e 2 60
e 2 66
e 2 77
e 2 78
e 2 80
e 2 83
e 2 85
e 2 88
e 2 96
e 2 98
e 2 101
e 2 104
e 2 105
e 2 108
e 2 109
e 2 112
e 2 123
e 2 124
e 2 126
e 2 129
e 2 142
e 2 146
e 2 151
e 2 153
e 2 156
e 2 164
e 2 176
e 2 177
e 2 192
e 2 195
e 2 197
e 2 200
e 3 8
e 3 9
e 3 21
e 3 31
e 3 33
e 3 35
e 3 38
e 3 46
e 3 50
e 3 58
e 3 63
e 3 66
e 3 71
e 3 72
e 3 78
e 3 79
e 3 82
e 3 83
e 3 85
e 3 97
e 3 99
e 3 102
e 3 113
e 3 114
e 3 115
e 3 118
e 3 119
e 3 121
e 3 125
e 3 128
e 3 132
e 3 133
e 3 139
e 3 141
e 3 143
e 3 145
e 3 156
e 3 162
e 3 164
e 3 170
e 3 172
e 3 190
e 3 193
e 4 7
e 4 20
e 4 22
e 4 23
e 4 25
e 4 28
e 4 30
e 4 39
e 4 41
e 4 42
e 4 43
e 4 45
e 4 58
e 4 63
e 4 68
e 4 70
e 4 72
e 4 81
e 4 85
e 4 92
e 4 95
e 4 117
e 4 121
e 4 122
e 4 125
e 4 127
e 4 132
e 4 133
e 4 134
e 4 138
e 4 144
e 4 154
e 4 157
e 4 167
e 4 177
e 4 179
e 4 182
e 4 185
e 4 188
e 4 190
e 4 192
e 4 194
e 5 7
e 5 11
e 5 15
e 5 25
e 5 29
e 5 33
e 5 34
e 5 44
e 5 67
e 5 75
e 5 85
e 5 86
e 5 89
e 5 92
e 5 94
e 5 96
e 5 97
e 5 102
e 5 106
e 5 110
e 5 113
e 5 115
e 5 118
e 5 119
e 5 124
e 5 125
e 5 128
e 5 132
e 5 136
e 5 139
e 5 147
e 5 152
e 5 159
e 5 163
e 5 166
e 5 175
e 5 178
e 5 181
e 5 187
e 5 188
e 5 190
e 6 18
e 6 20
e 6 24
e 6 38
e 6 49
e 6 50
e 6 62
e 6 68
e 6 72
e 6 73
e 6 74
e 6 76
e 6 77
e 6 78
e 6 80
e 6 86
e 6 90
e 6 92
e 6 99
e 6 100
e 6 104
e 6 118
e 6 119
e 6 120
e 6 126
e 6 128
e 6 129
e 6 132
e 6 133
e 6 136
e 6 137
e 6 163
e 6 165
e 6 173
e 6 175
e 6 177
e 6 179
e 6 195
e 7 8
e 7 11
e 7 13
e 7 16
e 7 21
e 7 39
e 7 42
e 7 43
e 7 46
e 7 59
e 7 66
e 7 68
e 7 72
e 7 73
e 7 75
e 7 87
e 7 91
e 7 103
e 7 107
e 7 108
e 7 125
e 7 131
e 7 135
e 7 142
e 7 143
e 7 146
e 7 157
e 7 165
e 7 166
e 7 168
e 7 172
e 7 186
e 7 190
e 8 11
e 8 31
e 8 42
e 8 45
e 8 46
e 8 51
e 8 53
e 8 54
e 8 67
e 8 71
e 8 77
e 8 83
e 8 85
e 8 97
e 8 100
e 8 102
e 8 104
e 8 106
e 8 108
e 8 109
e 8 112
e 8 123
e 8 125
e 8 129
e 8 130
e 8 132
e 8 133
e 8 136
e 8 138
e 8 139
e 8 141
e 8 151
e 8 153
e 8 160
e 8 161
e 8 175
e 8 178
e 8 185
e 8 186
e 8 190
e 8 196
e 9 10
e 9 16
e 9 22
e 9 27
e 9 32
e 9 38
e 9 41
e 9 42
e 9 44
e 9 45
e 9 50
e 9 58
e 9 73
e 9 74
e 9 75
e 9 81
e 9 83
e 9 84
e 9 85
e 9 93
e 9 96
e 9 97
e 9 100
e 9 111
e 9 112
e 9 114
e 9 141
e 9 148
e 9 155
e 9 163
e 9 176
e 9 179
e 9 180
e 9 189
e 9 191
e 9 194
e 9 195
e 9 196
e 10 11
e 10 16
e 10 29
e 10 31
e 10 42
e 10 47
e 10 48
e 10 49
e 10 53
e 10 55
e 10 58
e 10 73
e 10 74
e 10 82
e 10 85
e 10 88
e 10 89
e 10 91
e 10 94
e 10 105
e 10 117
e 10 118
e 10 119
e 10 122
e 10 124
e 10 127
e 10 133
e 10 135
e 10 142
e 10 144
e 10 145
e 10 160
e 10 164
e 10 169
e 10 170
e 10 174
e 10 176
e 10 181
e 10 183
e 10 184
e 10 186
e 10 187
e 10 196
e 11 12
e 11 13
e 11 15
e 11 16
e 11 17
e 11 20
e 11 25
e 11 35
e 11 40
e 11 45
e 11 47
e 11 49
e 11 51
e 11 60
e 11 61
e 11 64
e 11 66
e 11 77
e 11 81
e 11 83
e 11 85
e 11 88
e 11 90
e 11 99
e 11 102
e 11 104
e 11 105
e 11 114
e 11 116
e 11 117
e 11 124
e 11 125
e 11 145
e 11 147
e 11 164
e 11 170
e 11 180
e 11 182
e 11 186
e 11 192
e 11 199
e 12 16
e 12 21
e 12 29
e 12 37
e 12 39
e 12 42
e 12 45
e 12 50
e 12 54
e 12 55
e 12 59
e 12 63
e 12 68
e 12 69
e 12 76
e 12 78
e 12 80
e 12 90
e 12 95
e 12 98
e 12 101
e 12 109
e 12 111
e 12 113
e 12 117
e 12 131
e 12 141
e 12 142
e 12 147
e 12 149
e 12 150
e 12 156
e 12 157
e 12 169
e 12 172
e 12 173
e 12 174
e 12 175
e 12 194
e 13 21
e 13 22
e 13 23
e 13 30
e 13 34
e 13 35
e 13 41
e 13 42
e 13 45
e 13 47
e 13 57
e 13 60
e 13 66
e 13 80
e 13 89
e 13 94
e 13 100
e 13 106
e 13 112
e 13 117
e 13 118
e 13 121
e 13 128
e 13 131
e 13 143
e 13 151
e 13 152
e 13 153
e 13 158
e 13 162
e 13 169
e 13 173
e 13 174
e 13 183
e 13 185
e 13 188
e 13 192
e 13 194
e 13 198
e 13 199
e 14 16
e 14 22
e 14 28
e 14 32
e 14 33
e 14 35
e 14 42
e 14 46
e 14 54
e 14 57
e 14 60
e 14 62
e 14 68
e 14 71
e 14 72
e 14 81
e 14 82
e 14 86
e 14 92
e 14 94
e 14 99
e 14 107
e 14 124
e 14 126
e 14 128
e 14 137
e 14 142
e 14 155
e 14 161
e 14 162
e 14 164
e 14 165
e 14 174
e 14 178
e 14 183
e 14 189
e 14 192
e 14 197
e 14 200
e 15 19
e 15 27
e 15 29
e 15 36
e 15 41
e 15 46
e 15 48
e 15 49
e 15 52
e 15 57
e 15 59
e 15 63
e 15 64
e 15 67
e 15 72
e 15 75
e 15 79
e 15 81
e 15 86
e 15 92
e 15 99
e 15 104
e 15 106
e 15 109
e 15 110
e 15 116
e 15 117
e 15 121
e 15 133
e 15 142
e 15 144
e 15 150
e 15 154
e 15 160
e 15 163
e 15 164
e 15 167
e 15 174
e 15 180
e 15 191
e 15 197
e 16 20
e 16 21
e 16 23
e 16 30
e 16 38
e 16 39
e 16 41
e 16 43
e 16 46
e 16 50
e 16 72
e 16 77
e 16 82
e 16 101
e 16 108
e 16 111
e 16 115
e 16 118
e 16 125
e 16 148
e 16 153
e 16 165
e 16 168
e 16 169
e 16 170
e 16 171
e 16 176
e 16 178
e 16 195
e 17 21
e 17 24
e 17 28
e 17 29
e 17 30
e 17 31
e 17 36
e 17 41
e 17 43
e 17 44
e 17 52
e 17 69
e 17 70
e 17 74
e 17 78
e 17 80
e 17 83
e 17 87
e 17 89
e 17 95
e 17 97
e 17 100
e 17 103
e 17 111
e 17 112
e 17 114
e 17 120
e 17 121
e 17 122
e 17 128
e 17 135
e 17 136
e 17 150
e 17 156
e 17 158
e 17 159
e 17 161
e 17 165
e 17 166
e 17 170
e 17 178
e 17 189
e 17 200
e 18 26
e 18 31
e 18 39
e 18 43
e 18 44
e 18 48
e 18 52
e 18 56
e 18 58
e 18 62
e 18 79
e 18 81
e 18 83
e 18 85
e 18 86
e 18 92
e 18 94
e 18 95
e 18 98
e 18 99
e 18 100
e 18 110
e 18 111
e 18 112
e 18 120
e 18 122
e 18 124
e 18 127
e 18 129
e 18 146
e 18 152
e 18 154
e 18 166
e 18 170
e 18 172
e 18 183
e 18 184
e 18 188
e 18 192
e 18 198
e 18 200
e 19 24
e 19 28
e 19 31
e 19 38
e 19 44
e 19 48
e 19 56
e 19 57
e 19 66
e 19 70
e 19 79
e 19 81
e 19 86
e 19 87
e 19 93
e 19 94
e 19 108
e 19 110
e 19 113
e 19 129
e 19 134
e 19 135
e 19 139
e 19 142
e 19 143
e 19 152
e 19 153
e 19 154
e 19 157
e 19 165
e 19 168
e 19 174
e 19 176
e 19 178
e 19 182
e 19 184
e 19 188
e 20 41
e 20 48
e 20 50
e 20 57
e 20 61
e 20 65
e 20 75
e 20 76
e 20 77
e 20 81
e 20 87
e 20 89
e 20 91
e 20 103
e 20 107
e 20 114
e 20 115
e 20 117
e 20 120
e 20 126
e 20 128
e 20 130
e 20 131
e 20 133
e 20 136
e 20 138
e 20 142
e 20 143
e 20 146
e 20 147
e 20 152
e 20 154
e 20 160
e 20 163
e 20 170
e 20 171
e 20 174
e 20 175
e 20 177
e 20 180
e 20 190
e 20 193
e 20 194
e 20 196
e 21 22
e 21 26
e 21 31
e 21 41
e 21 51
e 21 56
e 21 57
e 21 59
e 21 62
e 21 63
e 21 69
e 21 80
e 21 95
e 21 108
e 21 113
e 21 114
e 21 117
e 21 118
e 21 119
e 21 122
e 21 136
e 21 142
e 21 151
e 21 164
e 21 176
e 21 187
e 21 189
e 21 194
e 22 34
e 22 35
e 22 41
e 22 45
e 22 50
e 22 54
e 22 72
e 22 86
e 22 88
e 22 90
e 22 91
e 22 93
e 22 94
e 22 102
e 22 108
e 22 112
e 22 119
e 22 121
e 22 125
e 22 126
e 22 138
e 22 139
e 22 142
e 22 145
e 22 149
e 22 155
e 22 168
e 22 169
e 22 170
e 22 172
e 22 173
e 22 180
e 22 183
e 22 184
e 22 185
e 22 186
e 22 191
e 22 192
e 22 197
e 23 25
e 23 36
e 23 38
e 23 41
e 23 42
e 23 43
e 23 46
e 23 47
e 23 58
e 23 62
e 23 65
e 23 70
e 23 71
e 23 72
e 23 74
e 23 75
e 23 82
e 23 87
e 23 89
e 23 90
e 23 93
e 23 102
e 23 103
e 23 115
e 23 126
e 23 132
e 23 133
e 23 134
e 23 140
e 23 143
e 23 145
e 23 158
e 23 159
e 23 180
e 23 182
e 23 190
e 23 192
e 23 199
e 24 26
e 24 27
e 24 35
e 24 36
e 24 37
e 24 38
e 24 60
e 24 64
e 24 67
e 24 71
e 24 72
e 24 73
e 24 80
e 24 81
e 24 97
e 24 104
e 24 108
e 24 111
e 24 115
e 24 123
e 24 128
e 24 129
e 24 135
e 24 150
e 24 152
e 24 155
e 24 171
e 24 198
e 24 200
e 25 26
e 25 38
e 25 50
e 25 51
e 25 52
e 25 53
e 25 57
e 25 59
e 25 67
e 25 71
e 25 83
e 25 92
e 25 101
e 25 114
e 25 115
e 25 125
e 25 127
e 25 128
e 25 129
e 25 133
e 25 144
e 25 147
e 25 149
e 25 158
e 25 159
e 25 164
e 25 166
e 25 168
e 25 178
e 25 179
e 25 181
e 25 184
e 25 190
e 25 198
e 26 27
e 26 29
e 26 32
e 26 45
e 26 46
e 26 54
e 26 58
e 26 59
e 26 60
e 26 63
e 26 66
e 26 67
e 26 68
e 26 76
e 26 92
e 26 93
e 26 123
e 26 140
e 26 141
e 26 145
e 26 160
e 26 161
e 26 167
e 26 177
e 26 186
e 27 28
e 27 33
e 27 49
e 27 52
e 27 55
e 27 56
e 27 60
e 27 63
e 27 68
e 27 69
e 27 70
e 27 71
e 27 73
e 27 77
e 27 80
e 27 90
e 27 95
e 27 100
e 27 101
e 27 106
e 27 107
e 27 122
e 27 124
e 27 126
e 27 130
e 27 133
e 27 138
e 27 139
e 27 140
e 27 143
e 27 144
e 27 145
e 27 157
e 27 164
e 27 167
e 27 168
e 27 172
e 27 174
e 27 177
e 27 185
e 27 192
e 27 193
e 27 198
e 28 30
e 28 37
e 28 39
e 28 40
e 28 44
e 28 61
e 28 62
e 28 68
e 28 72
e 28 80
e 28 86
e 28 95
e 28 102
e 28 106
e 28 117
e 28 119
e 28 121
e 28 124
e 28 125
e 28 135
e 28 141
e 28 142
e 28 151
e 28 162
e 28 166
e 28 171
e 28 174
e 28 187
e 28 192
e 28 193
e 28 198
e 28 199
e 28 200
e 29 30
e 29 36
e 29 45
e 29 47
e 29 49
e 29 51
e 29 58
e 29 62
e 29 73
e 29 86
e 29 90
e 29 94
e 29 98
e 29 102
e 29 104
e 29 105
e 29 107
e 29 108
e 29 110
e 29 119
e 29 120
e 29 123
e 29 124
e 29 127
e 29 141
e 29 147
e 29 154
e 29 166
e 29 167
e 29 170
e 29 173
e 29 176
e 29 179
e 29 187
e 29 191
e 29 192
e 29 197
e 29 200
e 30 35
e 30 46
e 30 54
e 30 56
e 30 58
e 30 60
e 30 64
e 30 68
e 30 69
e 30 75
e 30 78
e 30 87
e 30 89
e 30 94
e 30 96
e 30 99
e 30 100
e 30 101
e 30 107
e 30 110
e 30 113
e 30 115
e 30 119
e 30 121
e 30 127
e 30 129
e 30 136
e 30 141
e 30 143
e 30 144
e 30 146
e 30 152
e 30 157
e 30 174
e 30 176
e 30 177
e 30 187
e 30 191
e 31 33
e 31 43
e 31 45
e 31 47
e 31 48
e 31 50
e 31 55
e 31 58
e 31 60
e 31 67
e 31 70
e 31 90
e 31 104
e 31 110
e 31 114
e 31 121
e 31 131
e 31 137
e 31 143
e 31 145
e 31 147
e 31 150
e 31 159
e 31 160
e 31 168
e 31 173
e 31 183
e 31 185
e 31 188
e 32 36
e 32 42
e 32 48
e 32 59
e 32 63
e 32 67
e 32 70
e 32 72
e 32 73
e 32 75
e 32 79
e 32 83
e 32 84
e 32 87
e 32 94
e 32 97
e 32 99
e 32 102
e 32 103
e 32 113
e 32 120
e 32 127
e 32 143
e 32 149
e 32 154
e 32 157
e 32 161
e 32 176
e 32 191
e 32 195
e 33 35
e 33 45
e 33 46
e 33 50
e 33 52
e 33 53
e 33 61
e 33 65
e 33 68
e 33 70
e 33 76
e 33 81
e 33 82
e 33 83
e 33 86
e 33 100
e 33 109
e 33 115
e 33 127
e 33 131
e 33 141
e 33 146
e 33 149
e 33 156
e 33 162
e 33 165
e 33 171
e 33 174
e 33 181
e 33 183
e 33 184
e 33 190
e 33 196
e 34 36
e 34 47
e 34 50
e 34 54
e 34 64
e 34 66
e 34 68
e 34 71
e 34 77
e 34 84
e 34 88
e 34 94
e 34 108
e 34 109
e 34 111
e 34 112
e 34 128
e 34 133
e 34 136
e 34 143
e 34 147
e 34 152
e 34 156
e 34 159
e 34 160
e 34 162
e 34 163
e 34 168
e 34 172
e 34 174
e 34 186
e 34 192
e 34 193
e 34 197
e 35 38
e 35 44
e 35 49
e 35 53
e 35 54
e 35 55
e 35 58
e 35 65
e 35 70
e 35 71
e 35 73
e 35 78
e 35 85
e 35 86
e 35 89
e 35 90
e 35 91
e 35 101
e 35 103
e 35 104
e 35 107
e 35 111
e 35 126
e 35 133
e 35 134
e 35 143
e 35 145
e 35 154
e 35 157
e 35 161
e 35 180
e 35 193
e 35 195
e 35 197
e 36 37
e 36 39
e 36 49
e 36 51
e 36 64
e 36 84
e 36 89
e 36 97
e 36 102
e 36 104
e 36 111
e 36 112
e 36 115
e 36 121
e 36 129
e 36 136
e 36 141
e 36 145
e 36 146
e 36 153
e 36 155
e 36 156
e 36 157
e 36 162
e 36 164
e 36 171
e 36 177
e 36 179
e 36 185
e 36 191
e 36 199
e 37 41
e 37 46
e 37 48
e 37 54
e 37 56
e 37 60
e 37 61
e 37 63
e 37 65
e 37 76
e 37 80
e 37 82
e 37 83
e 37 101
e 37 107
e 37 111
e 37 115
e 37 118
e 37 125
e 37 133
e 37 135
e 37 141
e 37 144
e 37 147
e 37 150
e 37 151
e 37 152
e 37 155
e 37 163
e 37 164
e 37 168
e 37 176
e 37 183
e 37 188
e 37 189
e 37 195
e 38 39
e 38 44
e 38 48
e 38 54
e 38 72
e 38 77
e 38 83
e 38 85
e 38 88
e 38 89
e 38 104
e 38 107
e 38 109
e 38 113
e 38 122
e 38 127
e 38 128
e 38 137
e 38 140
e 38 144
e 38 147
e 38 156
e 38 158
e 38 167
e 38 182
e 38 184
e 38 188
e 38 189
e 38 193
e 39 44
e 39 45
e 39 49
e 39 50
e 39 51
e 39 54
e 39 55
e 39 56
e 39 59
e 39 65
e 39 70
e 39 83
e 39 86
e 39 88
e 39 90
e 39 92
e 39 104
e 39 105
e 39 108
e 39 109
e 39 113
e 39 114
e 39 116
e 39 122
e 39 127
e 39 129
e 39 130
e 39 131
e 39 135
e 39 142
e 39 143
e 39 144
e 39 152
e 39 174
e 39 183
e 39 186
e 39 192
e 39 199
e 40 49
e 40 55
e 40 59
e 40 77
e 40 84
e 40 85
e 40 86
e 40 92
e 40 95
e 40 98
e 40 104
e 40 114
e 40 116
e 40 117
e 40 131
e 40 135
e 40 147
e 40 150
e 40 151
e 40 157
e 40 159
e 40 179
e 40 183
e 40 185
e 40 190
e 40 192
e 40 197
e 40 198
e 41 46
e 41 47
e 41 52
e 41 54
e 41 59
e 41 62
e 41 67
e 41 71
e 41 75
e 41 82
e 41 85
e 41 95
e 41 108
e 41 115
e 41 116
e 41 117
e 41 118
e 41 119
e 41 120
e 41 123
e 41 126
e 41 131
e 41 134
e 41 139
e 41 140
e 41 146
e 41 148
e 41 152
e 41 158
e 41 176
e 41 177
e 41 178
e 41 179
e 41 180
e 41 181
e 41 184
e 41 191
e 41 198
e 41 199
e 42 46
e 42 48
e 42 58
e 42 66
e 42 67
e 42 71
e 42 72
e 42 73
e 42 74
e 42 91
e 42 97
e 42 101
e 42 105
e 42 114
e 42 120
e 42 122
e 42 124
e 42 125
e 42 126
e 42 134
e 42 138
e 42 144
e 42 150
e 42 155
e 42 156
e 42 157
e 42 166
e 42 168
e 42 173
e 42 174
e 42 178
e 42 179
e 42 189
e 42 192
e 42 194
e 42 200
e 43 46
e 43 48
e 43 49
e 43 50
e 43 52
e 43 54
e 43 58
e 43 62
e 43 66
e 43 68
e 43 69
e 43 76
e 43 78
e 43 79
e 43 81
e 43 90
e 43 102
e 43 104
e 43 117
e 43 120
e 43 124
e 43 126
e 43 129
e 43 133
e 43 138
e 43 141
e 43 145
e 43 146
e 43 149
e 43 156
e 43 165
e 43 174
e 43 175
e 43 187
e 43 200
e 44 45
e 44 46
e 44 48
e 44 50
e 44 55
e 44 58
e 44 60
e 44 62
e 44 64
e 44 71
e 44 78
e 44 84
e 44 86
e 44 90
e 44 95
e 44 99
e 44 101
e 44 102
e 44 104
e 44 114
e 44 116
e 44 126
e 44 134
e 44 143
e 44 144
e 44 146
e 44 151
e 44 152
e 44 155
e 44 160
e 44 170
e 44 171
e 44 172
e 44 177
e 44 182
e 44 195
e 45 68
e 45 69
e 45 71
e 45 73
e 45 78
e 45 79
e 45 81
e 45 98
e 45 110
e 45 117
e 45 122
e 45 125
e 45 129
e 45 135
e 45 141
e 45 146
e 45 149
e 45 154
e 45 155
e 45 156
e 45 161
e 45 163
e 45 167
e 45 169
e 45 176
e 45 184
e 45 188
e 45 191
e 45 192
e 45 193
e 46 49
e 46 60
e 46 61
e 46 70
e 46 75
e 46 78
e 46 80
e 46 85
e 46 88
e 46 89
e 46 90
e 46 91
e 46 95
e 46 96
e 46 97
e 46 99
e 46 103
e 46 106
e 46 112
e 46 131
e 46 132
e 46 156
e 46 157
e 46 161
e 46 164
e 46 165
e 46 175
e 46 180
e 46 184
e 46 191
e 46 199
e 47 52
e 47 54
e 47 55
e 47 59
e 47 61
e 47 64
e 47 66
e 47 69
e 47 72
e 47 77
e 47 80
e 47 86
e 47 93
e 47 96
e 47 99
e 47 102
e 47 105
e 47 112
e 47 113
e 47 117
e 47 126
e 47 127
e 47 128
e 47 130
e 47 139
e 47 144
e 47 155
e 47 158
e 47 164
e 47 165
e 47 169
e 47 172
e 47 175
e 47 183
e 47 198
e 47 200
e 48 55
e 48 56
e 48 58
e 48 60
e 48 79
e 48 87
e 48 94
e 48 96
e 48 102
e 48 106
e 48 123
e 48 126
e 48 127
e 48 128
e 48 131
e 48 133
e 48 144
e 48 146
e 48 153
e 48 155
e 48 159
e 48 170
e 48 171
e 48 174
e 48 186
e 48 188
e 48 193
e 49 50
e 49 52
e 49 53
e 49 54
e 49 61
e 49 62
e 49 67
e 49 70
e 49 71
e 49 74
e 49 85
e 49 86
e 49 93
e 49 107
e 49 109
e 49 116
e 49 122
e 49 125
e 49 127
e 49 130
e 49 137
e 49 143
e 49 150
e 49 157
e 49 159
e 49 163
e 49 164
e 49 170
e 49 173
e 49 179
e 49 181
e 49 188
e 49 193
e 49 194
e 49 195
e 50 51
e 50 54
e 50 61
e 50 62
e 50 72
e 50 85
e 50 96
e 50 98
e 50 102
e 50 114
e 50 122
e 50 129
e 50 134
e 50 135
e 50 137
e 50 139
e 50 140
e 50 144
e 50 146
e 50 148
e 50 162
e 50 174
e 50 179
e 50 183
e 50 184
e 50 189
e 50 190
e 50 191
e 50 198
e 51 53
e 51 57
e 51 58
e 51 59
e 51 60
e 51 62
e 51 77
e 51 78
e 51 80
e 51 83
e 51 86
e 51 92
e 51 95
e 51 99
e 51 105
e 51 106
e 51 113
e 51 114
e 51 115
e 51 119
e 51 123
e 51 125
e 51 127
e 51 132
e 51 144
e 51 145
e 51 146
e 51 147
e 51 152
e 51 153
e 51 156
e 51 157
e 51 162
e 51 167
e 51 172
e 51 173
e 51 174
e 51 176
e 51 177
e 52 55
e 52 57
e 52 58
e 52 59
e 52 70
e 52 71
e 52 72
e 52 85
e 52 93
e 52 107
e 52 110
e 52 120
e 52 128
e 52 133
e 52 134
e 52 136
e 52 139
e 52 151
e 52 153
e 52 166
e 52 174
e 52 175
e 52 182
e 52 185
e 52 198
e 53 55
e 53 56
e 53 58
e 53 62
e 53 74
e 53 81
e 53 88
e 53 90
e 53 102
e 53 104
e 53 127
e 53 133
e 53 137
e 53 141
e 53 150
e 53 152
e 53 154
e 53 156
e 53 157
e 53 162
e 53 170
e 53 172
e 53 173
e 53 186
e 53 187
e 54 64
e 54 65
e 54 69
e 54 70
e 54 76
e 54 78
e 54 84
e 54 89
e 54 92
e 54 97
e 54 98
e 54 99
e 54 100
e 54 102
e 54 112
e 54 124
e 54 127
e 54 131
e 54 133
e 54 139
e 54 142
e 54 143
e 54 145
e 54 147
e 54 151
e 54 152
e 54 158
e 54 161
e 54 162
e 54 169
e 54 172
e 54 173
e 54 180
e 54 181
e 54 200
e 55 58
e 55 60
e 55 65
e 55 67
e 55 71
e 55 72
e 55 81
e 55 84
e 55 85
e 55 89
e 55 105
e 55 109
e 55 114
e 55 119
e 55 122
e 55 128
e 55 129
e 55 130
e 55 132
e 55 137
e 55 141
e 55 147
e 55 153
e 55 160
e 55 165
e 55 170
e 55 173
e 55 176
e 55 184
e 55 185
e 55 189
e 55 191
e 55 196
e 55 199
e 56 59
e 56 64
e 56 65
e 56 70
e 56 74
e 56 78
e 56 82
e 56 101
e 56 114
e 56 117
e 56 126
e 56 134
e 56 138
e 56 141
e 56 148
e 56 149
e 56 150
e 56 153
e 56 158
e 56 166
e 56 169
e 56 172
e 56 180
e 56 187
e 56 194
e 56 198
e 57 60
e 57 61
e 57 66
e 57 82
e 57 85
e 57 93
e 57 94
e 57 100
e 57 104
e 57 111
e 57 113
e 57 124
e 57 127
e 57 128
e 57 135
e 57 138
e 57 145
e 57 146
e 57 147
e 57 170
e 57 171
e 57 184
e 57 192
e 57 197
e 57 199
e 58 59
e 58 60
e 58 61
e 58 72
e 58 77
e 58 82
e 58 85
e 58 94
e 58 109
e 58 116
e 58 127
e 58 129
e 58 130
e 58 151
e 58 161
e 58 167
e 58 171
e 58 173
e 58 186
e 58 189
e 58 190
e 58 200
e 59 64
e 59 72
e 59 73
e 59 83
e 59 101
e 59 104
e 59 107
e 59 108
e 59 109
e 59 121
e 59 125
e 59 127
e 59 130
e 59 136
e 59 139
e 59 149
e 59 160
e 59 168
e 59 169
e 59 176
e 59 177
e 59 183
e 59 186
e 59 187
e 59 194
e 59 197
e 59 200
e 60 74
e 60 78
e 60 81
e 60 82
e 60 84
e 60 85
e 60 88
e 60 93
e 60 96
e 60 103
e 60 105
e 60 116
e 60 117
e 60 119
e 60 121
e 60 125
e 60 131
e 60 137
e 60 140
e 60 149
e 60 150
e 60 153
e 60 158
e 60 163
e 60 192
e 60 193
e 61 64
e 61 67
e 61 72
e 61 76
e 61 83
e 61 90
e 61 92
e 61 104
e 61 106
e 61 107
e 61 108
e 61 111
e 61 114
e 61 116
e 61 122
e 61 127
e 61 128
e 61 133
e 61 137
e 61 139
e 61 140
e 61 141
e 61 144
e 61 149
e 61 150
e 61 152
e 61 154
e 61 157
e 61 161
e 61 181
e 61 183
e 61 190
e 61 191
e 62 64
e 62 65
e 62 67
e 62 69
e 62 80
e 62 91
e 62 95
e 62 98
e 62 100
e 62 102
e 62 122
e 62 124
e 62 130
e 62 134
e 62 146
e 62 147
e 62 152
e 62 156
e 62 157
e 62 162
e 62 166
e 62 167
e 62 168
e 62 177
e 62 185
e 62 187
e 62 188
e 63 70
e 63 71
e 63 77
e 63 79
e 63 88
e 63 92
e 63 95
e 63 112
e 63 114
e 63 125
e 63 135
e 63 138
e 63 143
e 63 146
e 63 150
e 63 153
e 63 155
e 63 173
e 63 175
e 63 178
e 63 193
e 63 197
e 64 73
e 64 78
e 64 80
e 64 91
e 64 94
e 64 98
e 64 112
e 64 116
e 64 117
e 64 120
e 64 124
e 64 131
e 64 137
e 64 138
e 64 141
e 64 144
e 64 147
e 64 149
e 64 151
e 64 170
e 64 180
e 64 186
e 64 187
e 64 190
e 64 191
e 64 194
e 64 197
e 64 199
e 65 66
e 65 70
e 65 72
e 65 84
e 65 89
e 65 99
e 65 102
e 65 105
e 65 107
e 65 110
e 65 113
e 65 115
e 65 121
e 65 132
e 65 133
e 65 142
e 65 145
e 65 146
e 65 148
e 65 149
e 65 152
e 65 156
e 65 164
e 65 167
e 65 171
e 65 172
e 65 181
e 65 183
e 65 189
e 65 192
e 65 193
e 65 196
e 65 199
e 65 200
e 66 69
e 66 82
e 66 90
e 66 95
e 66 96
e 66 105
e 66 109
e 66 120
e 66 125
e 66 129
e 66 132
e 66 139
e 66 141
e 66 143
e 66 146
e 66 154
e 66 158
e 66 160
e 66 168
e 66 170
e 66 177
e 66 192
e 66 200
e 67 68
e 67 75
e 67 85
e 67 86
e 67 87
e 67 89
e 67 96
e 67 102
e 67 104
e 67 111
e 67 113
e 67 119
e 67 120
e 67 125
e 67 129
e 67 136
e 67 148
e 67 149
e 67 153
e 67 165
e 67 167
e 67 172
e 67 177
e 67 178
e 67 180
e 67 186
e 67 192
e 67 197
e 67 199
e 68 79
e 68 94
e 68 101
e 68 106
e 68 113
e 68 116
e 68 117
e 68 127
e 68 132
e 68 136
e 68 140
e 68 150
e 68 152
e 68 154
e 68 156
e 68 162
e 68 163
e 68 167
e 68 169
e 68 181
e 68 192
e 69 72
e 69 78
e 69 106
e 69 112
e 69 116
e 69 122
e 69 131
e 69 134
e 69 137
e 69 143
e 69 146
e 69 151
e 69 153
e 69 155
e 69 158
e 69 160
e 69 161
e 69 165
e 69 168
e 69 180
e 69 182
e 69 196
e 69 198
e 70 73
e 70 77
e 70 90
e 70 91
e 70 100
e 70 101
e 70 107
e 70 108
e 70 109
e 70 111
e 70 112
e 70 114
e 70 115
e 70 118
e 70 122
e 70 123
e 70 126
e 70 127
e 70 133
e 70 134
e 70 164
e 70 165
e 70 169
e 70 172
e 70 174
e 70 179
e 70 187
e 70 188
e 70 197
e 71 75
e 71 76
e 71 80
e 71 86
e 71 92
e 71 95
e 71 98
e 71 108
e 71 109
e 71 113
e 71 116
e 71 125
e 71 131
e 71 143
e 71 147
e 71 179
e 71 182
e 71 185
e 71 188
e 71 198
e 71 199
e 72 84
e 72 88
e 72 94
e 72 96
e 72 99
e 72 102
e 72 104
e 72 107
e 72 119
e 72 122
e 72 130
e 72 140
e 72 147
e 72 153
e 72 158
e 72 168
e 72 179
e 72 189
e 72 192
e 73 78
e 73 79
e 73 85
e 73 91
e 73 92
e 73 94
e 73 100
e 73 112
e 73 114
e 73 115
e 73 118
e 73 119
e 73 140
e 73 145
e 73 149
e 73 154
e 73 159
e 73 161
e 73 166
e 73 177
e 73 182
e 73 183
e 73 195
e 73 197
e 74 77
e 74 84
e 74 85
e 74 89
e 74 94
e 74 120
e 74 121
e 74 122
e 74 133
e 74 136
e 74 150
e 74 151
e 74 161
e 74 162
e 74 175
e 74 177
e 74 182
e 74 185
e 74 186
e 74 190
e 74 195
e 75 87
e 75 93
e 75 98
e 75 99
e 75 100
e 75 109
e 75 110
e 75 115
e 75 117
e 75 120
e 75 128
e 75 129
e 75 133
e 75 141
e 75 143
e 75 144
e 75 146
e 75 152
e 75 156
e 75 157
e 75 158
e 75 160
e 75 162
e 75 169
e 75 171
e 75 186
e 75 193
e 75 195
e 75 196
e 75 197
e 75 198
e 75 200
e 76 79
e 76 81
e 76 83
e 76 94
e 76 103
e 76 105
e 76 109
e 76 116
e 76 129
e 76 133
e 76 138
e 76 139
e 76 143
e 76 155
e 76 159
e 76 161
e 76 168
e 76 169
e 76 180
e 76 185
e 76 187
e 76 190
e 76 193
e 76 194
e 76 200
e 77 78
e 77 79
e 77 83
e 77 85
e 77 86
e 77 87
e 77 89
e 77 92
e 77 95
e 77 105
e 77 107
e 77 109
e 77 115
e 77 126
e 77 131
e 77 145
e 77 156
e 77 163
e 77 166
e 77 185
e 77 191
e 78 84
e 78 87
e 78 92
e 78 111
e 78 113
e 78 114
e 78 119
e 78 121
e 78 122
e 78 128
e 78 133
e 78 141
e 78 144
e 78 145
e 78 147
e 78 148
e 78 149
e 78 169
e 78 170
e 78 172
e 78 181
e 78 185
e 78 193
e 78 197
e 79 84
e 79 99
e 79 104
e 79 106
e 79 109
e 79 112
e 79 117
e 79 123
e 79 132
e 79 141
e 79 154
e 79 163
e 79 164
e 79 170
e 79 180
e 79 187
e 79 188
e 79 197
e 80 83
e 80 88
e 80 93
e 80 98
e 80 106
e 80 117
e 80 122
e 80 124
e 80 125
e 80 128
e 80 130
e 80 132
e 80 137
e 80 144
e 80 145
e 80 152
e 80 159
e 80 173
e 80 178
e 80 184
e 80 194
e 80 198
e 80 200
e 81 82
e 81 86
e 81 87
e 81 88
e 81 92
e 81 95
e 81 105
e 81 108
e 81 111
e 81 116
e 81 129
e 81 130
e 81 137
e 81 138
e 81 141
e 81 142
e 81 156
e 81 164
e 81 165
e 81 169
e 81 175
e 81 177
e 81 181
e 81 182
e 81 189
e 81 190
e 82 91
e 82 98
e 82 99
e 82 114
e 82 125
e 82 128
e 82 132
e 82 133
e 82 136
e 82 145
e 82 157
e 82 159
e 82 167
e 82 184
e 82 197
e 83 94
e 83 96
e 83 109
e 83 116
e 83 121
e 83 132
e 83 142
e 83 145
e 83 160
e 83 166
e 83 169
e 83 170
e 83 171
e 83 177
e 83 178
e 83 181
e 83 196
e 84 92
e 84 95
e 84 115
e 84 121
e 84 126
e 84 130
e 84 135
e 84 139
e 84 140
e 84 142
e 84 146
e 84 152
e 84 159
e 84 166
e 84 171
e 84 173
e 84 176
e 84 179
e 84 183
e 84 185
e 84 186
e 84 188
e 84 193
e 84 196
e 84 198
e 85 86
e 85 95
e 85 99
e 85 100
e 85 113
e 85 114
e 85 121
e 85 135
e 85 140
e 85 142
e 85 145
e 85 146
e 85 148
e 85 150
e 85 155
e 85 164
e 85 165
e 85 169
e 85 172
e 85 173
e 85 174
e 85 176
e 85 178
e 85 179
e 85 184
e 85 191
e 85 193
e 85 196
e 86 87
e 86 92
e 86 93
e 86 100
e 86 101
e 86 103
e 86 105
e 86 110
e 86 113
e 86 122
e 86 130
e 86 132
e 86 133
e 86 136
e 86 142
e 86 153
e 86 154
e 86 157
e 86 158
e 86 161
e 86 164
e 86 184
e 86 187
e 86 191
e 86 192
e 86 193
e 86 195
e 87 94
e 87 95
e 87 96
e 87 98
e 87 111
e 87 112
e 87 113
e 87 114
e 87 115
e 87 117
e 87 125
e 87 131
e 87 132
e 87 140
e 87 141
e 87 150
e 87 155
e 87 157
e 87 173
e 87 177
e 87 182
e 87 184
e 87 194
e 87 200
e 88 94
e 88 96
e 88 97
e 88 99
e 88 128
e 88 133
e 88 140
e 88 141
e 88 144
e 88 149
e 88 153
e 88 154
e 88 168
e 88 174
e 88 176
e 88 181
e 88 182
e 88 191
e 88 196
e 89 108
e 89 112
e 89 114
e 89 121
e 89 129
e 89 134
e 89 136
e 89 144
e 89 147
e 89 151
e 89 153
e 89 156
e 89 158
e 89 170
e 89 171
e 89 173
e 89 179
e 89 184
e 89 188
e 89 190
e 89 196
e 90 91
e 90 93
e 90 107
e 90 113
e 90 115
e 90 117
e 90 119
e 90 120
e 90 128
e 90 131
e 90 141
e 90 156
e 90 158
e 90 159
e 90 163
e 90 174
e 90 176
e 90 181
e 90 193
e 90 195
e 91 113
e 91 122
e 91 125
e 91 127
e 91 129
e 91 139
e 91 156
e 91 163
e 91 176
e 91 182
e 91 197
e 92 101
e 92 102
e 92 103
e 92 112
e 92 115
e 92 117
e 92 118
e 92 128
e 92 130
e 92 134
e 92 140
e 92 143
e 92 149
e 92 150
e 92 153
e 92 163
e 92 166
e 92 167
e 92 171
e 92 176
e 92 181
e 92 182
e 92 184
e 92 192
e 92 194
e 92 200
e 93 97
e 93 103
e 93 104
e 93 117
e 93 118
e 93 129
e 93 134
e 93 147
e 93 150
e 93 152
e 93 159
e 93 168
e 93 169
e 93 175
e 93 178
e 93 179
e 93 185
e 93 186
e 93 190
e 93 198
e 93 199
e 93 200
e 94 99
e 94 105
e 94 106
e 94 115
e 94 117
e 94 119
e 94 120
e 94 125
e 94 132
e 94 133
e 94 134
e 94 141
e 94 145
e 94 148
e 94 154
e 94 155
e 94 157
e 94 160
e 94 169
e 94 171
e 94 173
e 94 180
e 94 182
e 94 183
e 94 184
e 94 186
e 94 190
e 94 191
e 94 199
e 95 103
e 95 104
e 95 106
e 95 111
e 95 114
e 95 118
e 95 122
e 95 123
e 95 124
e 95 125
e 95 130
e 95 134
e 95 144
e 95 147
e 95 155
e 95 160
e 95 161
e 95 163
e 95 164
e 95 169
e 95 172
e 95 180
e 95 184
e 95 188
e 95 196
e 96 98
e 96 106
e 96 108
e 96 114
e 96 115
e 96 129
e 96 133
e 96 134
e 96 137
e 96 141
e 96 142
e 96 149
e 96 156
e 96 159
e 96 163
e 96 164
e 96 166
e 96 167
e 96 173
e 96 175
e 96 176
e 96 182
e 96 183
e 96 189
e 96 196
e 96 198
e 97 100
e 97 105
e 97 111
e 97 113
e 97 123
e 97 125
e 97 130
e 97 150
e 97 158
e 97 162
e 97 169
e 97 178
e 97 179
e 97 183
e 97 187
e 97 190
e 97 195
e 97 199
e 98 104
e 98 108
e 98 109
e 98 115
e 98 119
e 98 123
e 98 124
e 98 133
e 98 135
e 98 138
e 98 148
e 98 155
e 98 166
e 98 171
e 98 175
e 98 177
e 98 181
e 98 193
e 98 196
e 98 199
e 98 200
e 99 108
e 99 109
e 99 114
e 99 115
e 99 117
e 99 125
e 99 127
e 99 131
e 99 136
e 99 139
e 99 146
e 99 154
e 99 156
e 99 161
e 99 166
e 99 174
e 99 177
e 99 179
e 99 192
e 99 197
e 100 101
e 100 114
e 100 116
e 100 125
e 100 139
e 100 158
e 100 172
e 100 173
e 100 177
e 100 182
e 100 186
e 100 187
e 100 189
e 100 191
e 100 194
e 100 197
e 100 199
e 101 104
e 101 114
e 101 117
e 101 119
e 101 127
e 101 137
e 101 144
e 101 148
e 101 157
e 101 162
e 101 172
e 102 120
e 102 122
e 102 135
e 102 136
e 102 139
e 102 141
e 102 144
e 102 146
e 102 150
e 102 152
e 102 155
e 102 162
e 102 163
e 102 166
e 102 169
e 102 172
e 102 185
e 102 191
e 102 199
e 102 200
e 103 104
e 103 105
e 103 108
e 103 114
e 103 115
e 103 116
e 103 117
e 103 124
e 103 131
e 103 132
e 103 137
e 103 138
e 103 145
e 103 150
e 103 172
e 103 174
e 103 184
e 103 185
e 103 199
e 104 124
e 104 131
e 104 148
e 104 160
e 104 169
e 104 175
e 104 180
e 104 181
e 104 185
e 104 188
e 104 191
e 104 195
e 104 196
e 105 106
e 105 108
e 105 120
e 105 127
e 105 128
e 105 139
e 105 149
e 105 150
e 105 152
e 105 154
e 105 160
e 105 167
e 105 190
e 105 199
e 106 115
e 106 119
e 106 124
e 106 131
e 106 132
e 106 137
e 106 145
e 106 153
e 106 159
e 106 164
e 106 166
e 106 172
e 106 181
e 106 182
e 106 183
e 106 188
e 106 193
e 106 196
e 107 116
e 107 138
e 107 143
e 107 147
e 107 148
e 107 156
e 107 159
e 107 166
e 107 168
e 107 169
e 107 176
e 107 178
e 107 179
e 107 182
e 107 192
e 107 194
e 107 197
e 107 198
e 107 199
e 108 114
e 108 116
e 108 117
e 108 127
e 108 138
e 108 139
e 108 145
e 108 158
e 108 160
e 108 162
e 108 167
e 108 174
e 108 176
e 108 179
e 108 182
e 108 184
e 108 189
e 108 192
e 108 195
e 108 197
e 109 128
e 109 132
e 109 133
e 109 135
e 109 144
e 109 146
e 109 153
e 109 158
e 109 161
e 109 163
e 109 165
e 109 172
e 109 177
e 109 178
e 109 181
e 109 182
e 109 184
e 109 188
e 109 197
e 109 198
e 110 113
e 110 117
e 110 127
e 110 132
e 110 133
e 110 142
e 110 147
e 110 149
e 110 152
e 110 155
e 110 159
e 110 162
e 110 163
e 110 165
e 110 172
e 110 174
e 110 182
e 110 185
e 110 186
e 110 187
e 110 190
e 110 192
e 110 195
e 110 200
e 111 112
e 111 119
e 111 126
e 111 135
e 111 139
e 111 150
e 111 151
e 111 163
e 111 166
e 111 170
e 111 171
e 111 176
e 111 179
e 111 180
e 111 182
e 111 186
e 111 188
e 111 200
e 112 113
e 112 121
e 112 126
e 112 149
e 112 162
e 112 169
e 112 186
e 112 188
e 112 191
e 113 118
e 113 120
e 113 122
e 113 125
e 113 143
e 113 146
e 113 150
e 113 157
e 113 162
e 113 165
e 113 167
e 113 175
e 113 184
e 113 195
e 113 198
e 114 118
e 114 124
e 114 125
e 114 126
e 114 127
e 114 128
e 114 138
e 114 139
e 114 150
e 114 152
e 114 156
e 114 168
e 114 181
e 114 182
e 114 189
e 114 194
e 114 200
e 115 117
e 115 133
e 115 137
e 115 139
e 115 140
e 115 143
e 115 144
e 115 145
e 115 148
e 115 153
e 115 163
e 115 173
e 115 180
e 115 186
e 115 193
e 115 196
e 115 197
e 116 118
e 116 120
e 116 128
e 116 130
e 116 136
e 116 142
e 116 145
e 116 149
e 116 150
e 116 154
e 116 160
e 116 164
e 116 166
e 116 179
e 116 190
e 116 192
e 116 194
e 117 121
e 117 123
e 117 124
e 117 131
e 117 133
e 117 145
e 117 146
e 117 149
e 117 155
e 117 167
e 117 173
e 117 180
e 117 181
e 117 191
e 117 196
e 117 199
e 118 125
e 118 129
e 118 130
e 118 135
e 118 144
e 118 145
e 118 153
e 118 154
e 118 156
e 118 160
e 118 161
e 118 162
e 118 166
e 118 167
e 118 180
e 118 184
e 118 186
e 118 193
e 119 124
e 119 129
e 119 134
e 119 137
e 119 141
e 119 147
e 119 148
e 119 150
e 119 155
e 119 157
e 119 161
e 119 165
e 119 167
e 119 168
e 119 173
e 119 174
e 119 177
e 119 190
e 119 192
e 119 197
e 120 122
e 120 125
e 120 129
e 120 132
e 120 139
e 120 140
e 120 152
e 120 169
e 120 179
e 120 181
e 120 185
e 120 186
e 120 187
e 120 189
e 120 198
e 121 134
e 121 135
e 121 138
e 121 139
e 121 147
e 121 152
e 121 156
e 121 161
e 121 163
e 121 165
e 121 166
e 121 171
e 121 172
e 121 184
e 121 185
e 121 188
e 121 189
e 121 197
e 121 198
e 122 125
e 122 126
e 122 127
e 122 128
e 122 134
e 122 139
e 122 143
e 122 144
e 122 145
e 122 150
e 122 152
e 122 155
e 122 159
e 122 160
e 122 165
e 122 180
e 122 183
e 123 133
e 123 138
e 123 157
e 123 162
e 123 175
e 123 176
e 123 186
e 123 189
e 123 194
e 123 195
e 124 126
e 124 127
e 124 128
e 124 140
e 124 152
e 124 159
e 124 160
e 124 166
e 124 169
e 124 181
e 124 185
e 124 186
e 124 191
e 124 196
e 124 197
e 125 131
e 125 135
e 125 136
e 125 152
e 125 158
e 125 163
e 125 170
e 125 171
e 125 179
e 125 191
e 125 200
e 126 127
e 126 131
e 126 141
e 126 142
e 126 145
e 126 157
e 126 159
e 126 163
e 126 167
e 126 177
e 126 189
e 126 200
e 127 131
e 127 132
e 127 137
e 127 139
e 127 152
e 127 154
e 127 161
e 127 163
e 127 167
e 127 169
e 127 175
e 127 183
e 127 191
e 127 192
e 127 196
e 128 139
e 128 142
e 128 143
e 128 147
e 128 152
e 128 155
e 128 162
e 128 164
e 128 169
e 128 175
e 128 180
e 128 188
e 128 198
e 129 130
e 129 131
e 129 133
e 129 137
e 129 138
e 129 139
e 129 150
e 129 153
e 129 154
e 129 158
e 129 163
e 129 166
e 129 168
e 129 178
e 129 182
e 129 188
e 130 136
e 130 137
e 130 142
e 130 144
e 130 147
e 130 149
e 130 150
e 130 165
e 130 178
e 130 182
e 130 193
e 130 200
e 131 134
e 131 135
e 131 136
e 131 141
e 131 144
e 131 148
e 131 151
e 131 154
e 131 161
e 131 167
e 131 168
e 131 188
e 131 189
e 132 140
e 132 141
e 132 143
e 132 144
e 132 152
e 132 153
e 132 154
e 132 161
e 132 162
e 132 164
e 132 165
e 132 167
e 132 169
e 132 176
e 132 180
e 132 184
e 132 193
e 132 199
e 133 138
e 133 139
e 133 142
e 133 152
e 133 157
e 133 164
e 133 175
e 133 178
e 133 182
e 133 188
e 133 190
e 133 191
e 133 192
e 133 198
e 134 135
e 134 138
e 134 141
e 134 157
e 134 159
e 134 161
e 134 169
e 134 172
e 134 173
e 134 180
e 134 185
e 134 193
e 134 196
e 134 199
e 135 142
e 135 143
e 135 154
e 135 155
e 135 159
e 135 162
e 135 169
e 135 174
e 135 175
e 135 178
e 135 179
e 135 183
e 135 196
e 135 197
e 135 198
e 135 199
e 136 139
e 136 142
e 136 145
e 136 148
e 136 153
e 136 156
e 136 161
e 136 173
e 136 174
e 136 177
e 136 179
e 136 181
e 136 183
e 136 185
e 136 186
e 136 198
e 137 142
e 137 145
e 137 152
e 137 160
e 137 165
e 137 167
e 137 176
e 137 179
e 137 187
e 137 188
e 137 189
e 137 192
e 137 195
e 137 200
e 138 139
e 138 144
e 138 151
e 138 154
e 138 156
e 138 157
e 138 160
e 138 162
e 138 163
e 138 164
e 138 165
e 138 166
e 138 169
e 138 173
e 138 174
e 138 175
e 138 177
e 138 185
e 139 142
e 139 145
e 139 153
e 139 174
e 139 180
e 139 181
e 139 183
e 139 189
e 139 196
e 139 200
e 140 173
e 140 176
e 140 180
e 140 190
e 140 191
e 140 192
e 140 196
e 141 147
e 141 148
e 141 150
e 141 153
e 141 155
e 141 158
e 141 171
e 141 174
e 141 187
e 141 191
e 141 198
e 141 199
e 142 143
e 142 147
e 142 150
e 142 156
e 142 162
e 142 164
e 142 167
e 142 168
e 142 174
e 142 179
e 142 180
e 142 182
e 142 184
e 142 193
e 143 155
e 143 157
e 143 178
e 143 180
e 143 192
e 144 148
e 144 150
e 144 151
e 144 161
e 144 164
e 144 170
e 144 171
e 144 185
e 144 191
e 144 195
e 144 200
e 145 146
e 145 156
e 145 159
e 145 166
e 145 167
e 145 178
e 145 180
e 145 184
e 145 189
e 145 191
e 145 192
e 145 195
e 146 151
e 146 154
e 146 155
e 146 157
e 146 158
e 146 164
e 146 166
e 146 172
e 146 181
e 146 184
e 146 188
e 146 195
e 147 153
e 147 157
e 147 165
e 147 167
e 147 170
e 147 174
e 147 178
e 147 180
e 147 184
e 147 190
e 147 198
e 147 199
e 148 150
e 148 151
e 148 152
e 148 153
e 148 161
e 148 162
e 148 164
e 148 177
e 148 179
e 148 180
e 148 187
e 148 193
e 149 159
e 149 170
e 149 175
e 149 178
e 149 179
e 149 183
e 149 187
e 150 162
e 150 166
e 150 170
e 150 179
e 151 152
e 151 159
e 151 165
e 151 171
e 151 180
e 151 183
e 151 188
e 151 189
e 151 194
e 151 195
e 151 196
e 152 156
e 152 162
e 152 174
e 152 176
e 152 179
e 152 183
e 152 192
e 152 193
e 153 155
e 153 162
e 153 174
e 153 176
e 153 186
e 153 199
e 154 160
e 154 184
e 154 187
e 154 191
e 154 200
e 155 158
e 155 161
e 155 162
e 155 166
e 155 167
e 155 169
e 155 170
e 155 182
e 155 184
e 155 200
e 156 161
e 156 165
e 156 174
e 156 180
e 156 185
e 156 191
e 156 193
e 156 195
e 157 158
e 157 160
e 157 162
e 157 165
e 157 170
e 157 175
e 157 181
e 157 186
e 157 192
e 157 198
e 158 169
e 158 170
e 158 175
e 158 180
e 158 181
e 158 193
e 158 196
e 158 198
e 159 162
e 159 166
e 159 172
e 159 176
e 159 179
e 159 181
e 159 184
e 159 186
e 159 187
e 159 191
e 160 163
e 160 164
e 160 167
e 160 171
e 160 172
e 160 178
e 160 185
e 160 190
e 160 192
e 160 196
e 161 165
e 161 171
e 161 175
e 161 177
e 161 181
e 161 182
e 161 192
e 162 167
e 162 171
e 162 176
e 162 192
e 162 197
e 162 198
e 163 165
e 163 169
e 163 174
e 163 175
e 163 177
e 163 179
e 163 186
e 163 191
e 164 182
e 164 190
e 164 192
e 164 196
e 165 189
e 165 199
e 165 200
e 166 167
e 166 168
e 166 172
e 166 178
e 166 181
e 166 185
e 166 199
e 167 170
e 167 177
e 167 188
e 167 195
e 168 178
e 168 184
e 168 186
e 168 187
e 168 189
e 168 196
e 169 179
e 169 191
e 169 192
e 169 194
e 170 176
e 170 191
e 170 192
e 170 199
e 171 172
e 171 176
e 171 183
e 171 187
e 171 188
e 172 173
e 172 174
e 172 175
e 172 177
e 172 197
e 172 200
e 173 181
e 173 183
e 173 188
e 173 200
e 174 177
e 174 183
e 174 185
e 174 191
e 174 192
e 174 198
e 175 176
e 175 178
e 175 181
e 175 186
e 175 189
e 175 194
e 175 199
e 176 177
e 176 184
e 176 186
e 176 188
e 176 193
e 176 198
e 177 178
e 177 182
e 177 193
e 177 199
e 178 183
e 178 185
e 178 187
e 178 194
e 178 196
e 179 183
e 179 187
e 179 200
e 180 183
e 180 186
e 180 188
e 180 191
e 180 194
e 180 195
e 180 198
e 181 194
e 181 199
e 182 184
e 182 188
e 182 194
e 182 195
e 183 187
e 183 192
e 183 195
e 184 196
e 184 197
e 184 200
e 185 190
e 185 194
e 185 198
e 186 190
e 186 191
e 186 193
e 186 198
e 187 194
e 187 195
e 187 196
e 188 194
e 188 196
e 189 195
e 190 196
e 191 198
e 191 199
e 191 200
e 192 194
e 192 199
e 193 194
e 193 197
e 193 200
e 194 198
e 194 199
e 195 196
e 196 198
e 196 199
e 196 200
e 197 200
e 199 200